proyfinal/src/viki/013/experimentInOfficeAgust.take6.output/305c4e22-cba9-488d-bb00-cf6d0650aea7.als.out
Reading from standard input... Use '--help' for help.
============================[ Problem Statistics ]=============================
|                                                                             |
|  Number of variables:         87638                                         |
|  Number of clauses:          161767                                         |
|  Parse time:                   0.04 s                                       |
|                                                                             |
============================[ Search Statistics ]==============================
| Conflicts |          ORIGINAL         |          LEARNT          | Progress |
|           |    Vars  Clauses Literals |    Limit  Clauses Lit/Cl |          |
===============================================================================
|       100 |   61907   103608   258440 |    37989      100     46 | 29.361 % |
|       250 |   61907   103608   258440 |    41788      250     66 | 29.361 % |
|       475 |   61906   103564   258350 |    45967      473     78 | 29.362 % |
|       812 |   61888   103490   258179 |    50564      809     86 | 29.382 % |
|      1318 |   61870   103416   258008 |    55620     1314     70 | 29.403 % |
|      2077 |   61870   103416   258008 |    61182     2073     70 | 29.403 % |
|      3216 |   61870   103416   258008 |    67300     3212     87 | 29.403 % |
|      4924 |   51178    72894   183142 |    74030     4666     75 | 41.603 % |
|      7486 |   51084    72084   181187 |    81434     7173     65 | 41.710 % |
|     11330 |   51006    71480   179737 |    89577    10414     62 | 41.799 % |
===============================================================================
restarts              : 62
conflicts             : 15669          (8833 /sec)
decisions             : 46966          (0.00 % random) (26475 /sec)
propagations          : 19286678       (10872061 /sec)
conflict literals     : 922342         (45.98 % deleted)
Memory used           : 28.53 MB
CPU time              : 1.77397 s

UNSATISFIABLE
